NAME : problems/30-tsp/instance-14.tsp
COMMENT : No Comment
TYPE : TSP
DIMENSION: 30
EDGE_WEIGHT_TYPE : EUC_2D
NODE_COORD_SECTION
1 868 3879 
2 3391 3781 
3 9582 3117 
4 5465 3719 
5 4932 6842 
6 950 7462 
7 455 3840 
8 6581 8635 
9 7461 6439 
10 6435 2249 
11 107 3800 
12 3727 3052 
13 7145 3483 
14 8441 1886 
15 8199 5403 
16 6294 1937 
17 8945 9410 
18 1921 3880 
19 1901 6034 
20 3448 3234 
21 1836 3433 
22 2225 6286 
23 6680 9055 
24 750 1067 
25 8862 5601 
26 4378 835 
27 1488 4502 
28 1647 2729 
29 7410 1524 
30 5201 2084 
EOF
